962 958 6
948 1010 0
995 991 20
958 2423 957
2423 966 957
2423 958 965
966 2423 965
2411 2416 2418
2418 26 2411
2418 2416 2417
2418 2417 2419
2418 2419 1005
26 2418 1005
2412 2410 12
18 2410 2412
2412 12 975
2412 975 976
976 986 2412
2412 986 18
2413 2411 26
2413 4 2411
2413 26 1008
2413 1008 1009
1009 953 2413
2413 953 4
2414 2410 18
24 2410 2414
2417 2410 2419
2417 12 2410
24 2419 2410
998 2421 995
2421 991 995
999 2421 998
2421 999 990
991 2421 990
2422 1009 1010
1009 2422 953
952 2422 1010
2422 952 953
990 2414 18
1000 2414 999
990 999 2414
24 2414 1000
2415 2411 4
10 2411 2415
957 966 2415
957 2415 4
967 2415 966
10 2415 967
10 2416 2411
2417 2416 972
2416 10 972
12 2417 972
2419 24 1005
2420 976 977
976 2420 986
985 2420 977
2420 985 986
982 977 14
962 965 958
965 962 8
952 948 1
1010 948 952
998 995 22
985 982 16
977 982 985
